p cnf 34 29
-1 7 31 0 
-2 17 31 0 
-3 13 31 0 
-4 21 31 0 
-5 31 0 
-6 -7 1 32 0 
-8 33 0 
-7 1 -9 32 0 
-10 18 26 31 0 
-11 -12 -13 3 32 0 
-14 32 0 
-15 31 0 
-16 31 0 
-17 2 33 0 
-18 10 26 -19 31 0 
-20 31 0 
-21 4 31 0 
-22 34 0 
-23 33 0 
-24 31 0 
-25 -8 33 0 
-7 1 -2 17 32 0 
-1 7 -26 10 18 31 0 
-14 -27 28 31 0 
-7 1 -28 27 32 0 
-29 32 0 
-9 32 0 
-12 32 0 
-30 31 0 
